p cnf 1048 399
1 7 13 19 25 31 0
2 8 14 20 26 32 0
3 9 15 21 27 33 0
4 10 16 22 28 34 0
5 11 17 23 29 35 0
6 12 18 24 30 36 0
-1 37 0
-2 37 0
-1 -2 0
1 2 -37 0
-37 38 0
-3 38 0
-37 -3 0
37 3 -38 0
-38 39 0
-4 39 0
-38 -4 0
38 4 -39 0
-39 40 0
-5 40 0
-39 -5 0
39 5 -40 0
-40 -6 0
-7 41 0
-8 41 0
-7 -8 0
7 8 -41 0
-41 42 0
-9 42 0
-41 -9 0
41 9 -42 0
-42 43 0
-10 43 0
-42 -10 0
42 10 -43 0
-43 44 0
-11 44 0
-43 -11 0
43 11 -44 0
-44 -12 0
-13 45 0
-14 45 0
-13 -14 0
13 14 -45 0
-45 46 0
-15 46 0
-45 -15 0
45 15 -46 0
-46 47 0
-16 47 0
-46 -16 0
46 16 -47 0
-47 48 0
-17 48 0
-47 -17 0
47 17 -48 0
-48 -18 0
-19 49 0
-20 49 0
-19 -20 0
19 20 -49 0
-49 50 0
-21 50 0
-49 -21 0
49 21 -50 0
-50 51 0
-22 51 0
-50 -22 0
50 22 -51 0
-51 52 0
-23 52 0
-51 -23 0
51 23 -52 0
-52 -24 0
-25 53 0
-26 53 0
-25 -26 0
25 26 -53 0
-53 54 0
-27 54 0
-53 -27 0
53 27 -54 0
-54 55 0
-28 55 0
-54 -28 0
54 28 -55 0
-55 56 0
-29 56 0
-55 -29 0
55 29 -56 0
-56 -30 0
-31 57 0
-32 57 0
-31 -32 0
31 32 -57 0
-57 58 0
-33 58 0
-57 -33 0
57 33 -58 0
-58 59 0
-34 59 0
-58 -34 0
58 34 -59 0
-59 60 0
-35 60 0
-59 -35 0
59 35 -60 0
-60 -36 0
962 7 31 0
-962 -7 0
-962 -31 0
963 9 33 0
-963 -9 0
-963 -33 0
964 9 41 0
-964 -9 0
-964 -41 0
965 33 57 0
-965 -33 0
-965 -57 0
966 5 17 0
-966 -5 0
-966 -17 0
967 6 18 0
-967 -6 0
-967 -18 0
968 4 -39 0
-968 -4 0
-968 39 0
969 17 -48 0
-969 -17 0
-969 48 0
970 19 25 31 0
-970 -19 0
-970 -25 0
-970 -31 0
971 20 26 32 0
-971 -20 0
-971 -26 0
-971 -32 0
972 21 27 33 0
-972 -21 0
-972 -27 0
-972 -33 0
973 21 49 0
-973 -21 0
-973 -49 0
974 27 53 0
-974 -27 0
-974 -53 0
975 1 25 31 0
-975 -1 0
-975 -25 0
-975 -31 0
976 2 26 32 0
-976 -2 0
-976 -26 0
-976 -32 0
977 3 27 33 0
-977 -3 0
-977 -27 0
-977 -33 0
978 3 37 0
-978 -3 0
-978 -37 0
979 2 8 0
-979 -2 0
-979 -8 0
980 3 9 0
-980 -3 0
-980 -9 0
981 11 17 0
-981 -11 0
-981 -17 0
982 12 18 0
-982 -12 0
-982 -18 0
983 11 -44 0
-983 -11 0
-983 44 0
984 1 19 31 0
-984 -1 0
-984 -19 0
-984 -31 0
985 2 20 32 0
-985 -2 0
-985 -20 0
-985 -32 0
986 3 21 33 0
-986 -3 0
-986 -21 0
-986 -33 0
987 2 32 0
-987 -2 0
-987 -32 0
988 3 33 0
-988 -3 0
-988 -33 0
989 32 -57 0
-989 -32 0
-989 57 0
990 1 19 25 0
-990 -1 0
-990 -19 0
-990 -25 0
991 2 20 26 0
-991 -2 0
-991 -20 0
-991 -26 0
992 3 21 27 0
-992 -3 0
-992 -21 0
-992 -27 0
993 2 26 0
-993 -2 0
-993 -26 0
994 3 27 0
-994 -3 0
-994 -27 0
995 26 -53 0
-995 -26 0
-995 53 0
996 8 26 0
-996 -8 0
-996 -26 0
997 9 27 0
-997 -9 0
-997 -27 0
998 23 35 0
-998 -23 0
-998 -35 0
999 24 36 0
-999 -24 0
-999 -36 0
1000 23 -52 0
-1000 -23 0
-1000 52 0
1001 35 -60 0
-1001 -35 0
-1001 60 0
1002 8 32 0
-1002 -8 0
-1002 -32 0
1003 5 11 0
-1003 -5 0
-1003 -11 0
1004 6 12 0
-1004 -6 0
-1004 -12 0
1005 5 -40 0
-1005 -5 0
-1005 40 0
1006 8 20 0
-1006 -8 0
-1006 -20 0
1007 9 21 0
-1007 -9 0
-1007 -21 0
1008 20 -49 0
-1008 -20 0
-1008 49 0
1009 29 35 0
-1009 -29 0
-1009 -35 0
1010 30 36 0
-1010 -30 0
-1010 -36 0
1011 29 -56 0
-1011 -29 0
-1011 56 0
1012 8 14 0
-1012 -8 0
-1012 -14 0
1013 9 15 0
-1013 -9 0
-1013 -15 0
1014 15 45 0
-1014 -15 0
-1014 -45 0
1015 11 23 0
-1015 -11 0
-1015 -23 0
1016 12 24 0
-1016 -12 0
-1016 -24 0
1017 23 29 0
-1017 -23 0
-1017 -29 0
1018 24 30 0
-1018 -24 0
-1018 -30 0
1019 1 13 31 0
-1019 -1 0
-1019 -13 0
-1019 -31 0
1020 2 14 32 0
-1020 -2 0
-1020 -14 0
-1020 -32 0
1021 3 15 33 0
-1021 -3 0
-1021 -15 0
-1021 -33 0
1022 13 25 31 0
-1022 -13 0
-1022 -25 0
-1022 -31 0
1023 14 26 32 0
-1023 -14 0
-1023 -26 0
-1023 -32 0
1024 15 27 33 0
-1024 -15 0
-1024 -27 0
-1024 -33 0
1025 5 23 0
-1025 -5 0
-1025 -23 0
1026 6 24 0
-1026 -6 0
-1026 -24 0
1027 22 -51 0
-1027 -22 0
-1027 51 0
1028 1 13 25 0
-1028 -1 0
-1028 -13 0
-1028 -25 0
1029 2 14 26 0
-1029 -2 0
-1029 -14 0
-1029 -26 0
1030 3 15 27 0
-1030 -3 0
-1030 -15 0
-1030 -27 0
1031 1 13 19 0
-1031 -1 0
-1031 -13 0
-1031 -19 0
1032 2 14 20 0
-1032 -2 0
-1032 -14 0
-1032 -20 0
1033 3 15 21 0
-1033 -3 0
-1033 -15 0
-1033 -21 0
1034 2 14 0
-1034 -2 0
-1034 -14 0
1035 3 15 0
-1035 -3 0
-1035 -15 0
1036 13 19 31 0
-1036 -13 0
-1036 -19 0
-1036 -31 0
1037 14 20 32 0
-1037 -14 0
-1037 -20 0
-1037 -32 0
1038 15 21 33 0
-1038 -15 0
-1038 -21 0
-1038 -33 0
1039 14 32 0
-1039 -14 0
-1039 -32 0
1040 15 33 0
-1040 -15 0
-1040 -33 0
1041 13 31 0
-1041 -13 0
-1041 -31 0
1042 5 29 0
-1042 -5 0
-1042 -29 0
1043 6 30 0
-1043 -6 0
-1043 -30 0
1044 13 19 25 0
-1044 -13 0
-1044 -19 0
-1044 -25 0
1045 14 20 26 0
-1045 -14 0
-1045 -20 0
-1045 -26 0
1046 15 21 27 0
-1046 -15 0
-1046 -21 0
-1046 -27 0
1047 5 35 0
-1047 -5 0
-1047 -35 0
1048 6 36 0
-1048 -6 0
-1048 -36 0
